Problem:    uel
Rows:       113
Columns:    46
Non-zeros:  345
Status:     OPTIMAL
Objective:  maxOfAllErrors = 0.025 (MINimum)

   No.   Row name   St   Activity     Lower bound   Upper bound    Marginal
------ ------------ -- ------------- ------------- ------------- -------------
     1 Eq1_2_3_down B         -1.865         -1.88               
     2 Eq1_2_3_up   B         -1.915                        -1.8 
     3 Eq4_down     B          -1.85          -1.9               
     4 Eq4_up       NU          -1.9                        -1.9         < eps
     5 Eq5_6a_down  NU         -1.88                       -1.88         -0.25 
     6 Eq5_6a_up    B          -1.93                       -1.88 
     7 Eq5_6b_down  B          -1.88            -2               
     8 Eq5_6b_up    B          -1.93            -2               
     9 Eq8_down     B          -1.98         -2.03               
    10 Eq8_up       NU         -2.03                       -2.03         < eps
    11 Eq9_down     B          -2.34         -2.39               
    12 Eq9_up       NU         -2.39                       -2.39         < eps
    13 Eq10_down    B          -1.45          -1.5               
    14 Eq10_up      NU          -1.5                        -1.5        -0.375 
    15 Eq12_down    NL         -1.62         -1.62                       0.375 
    16 Eq12_up      B          -1.67                       -1.62 
    17 Eq13_down    B          -1.63         -1.63               
    18 Eq13_up      B          -1.68                       -1.63 
    19 Eq14_down    B          -1.64         -1.66               
    20 Eq14_up      B          -1.69                       -1.66 
    21 Eq15_down    NL         -1.83         -1.83                       0.125 
    22 Eq15_up      B          -1.88                       -1.83 
    23 Eq16_17b_down
                    B           -1.8         -2.18               
    24 Eq16_17a_up  NU         -1.85                       -1.85        -0.125 
    25 Eq18_down    B          -2.33         -2.38               
    26 Eq18_up      NU         -2.38                       -2.38         < eps
    27 Eq19_down    B          -3.01         -3.05               
    28 Eq19_up      B          -3.06                       -3.05 
    29 Eq20_21b_down
                    B          -2.36         -2.52               
    30 Eq20_21a_up  NU         -2.41                       -2.41         < eps
    31 Eq22_down    B          -2.78         -2.83               
    32 Eq22_up      NU         -2.83                       -2.83         < eps
    33 Eq23_down    NL         -1.61         -1.61                        0.25 
    34 Eq23_up      B          -1.66                       -1.61 
    35 Eq24_down    B          -1.78         -1.83               
    36 Eq24_up      NU         -1.83                       -1.83         < eps
    37 Eq25_down    B          -1.88         -1.93               
    38 Eq25_up      NU         -1.93                       -1.93         < eps
    39 Eq26_down    B           -1.9         -1.95               
    40 Eq26_up      NU         -1.95                       -1.95         < eps
    41 Eq27_down    B          -1.71         -1.76               
    42 Eq27_up      NU         -1.76                       -1.76         < eps
    43 Eq28_down    B         -1.825         -1.83               
    44 Eq28_up      B         -1.875                       -1.83 
    45 Eq29_down    B           -1.9         -1.95               
    46 Eq29_up      NU         -1.95                       -1.95         < eps
    47 Eq31_down    NL         -1.41         -1.41                       < eps
    48 Eq31_up      B          -1.46                       -1.41 
    49 Eq33_down    B          -1.52         -1.57               
    50 Eq33_up      NU         -1.57                       -1.57         < eps
    51 Eq34_down    B          -1.69          -1.7               
    52 Eq34_up      B          -1.74                        -1.7 
    53 Eq35_down    NL         -1.81         -1.81                       < eps
    54 Eq35_up      B          -1.86                       -1.81 
    55 Eq37_down    B          -2.21         -2.23               
    56 Eq37_up      B          -2.26                       -2.23 
    57 Eq38_down    B          -2.04         -2.09               
    58 Eq38_up      NU         -2.09                       -2.09         < eps
    59 Eq39_down    B          -2.14         -2.19               
    60 Eq39_up      NU         -2.19                       -2.19         < eps
    61 Eq40_down    B          -2.15          -2.2               
    62 Eq40_up      NU          -2.2                        -2.2         < eps
    63 Eq41_down    B          -2.49         -2.54               
    64 Eq41_up      NU         -2.54                       -2.54         < eps
    65 Eq42_down    B          -2.28         -2.33               
    66 Eq42_up      NU         -2.33                       -2.33         < eps
    67 Eq43_down    B         -1.955         -1.97               
    68 Eq43_up      B         -2.005                       -1.97 
    69 Eq44_down    NL         -2.04         -2.04                       < eps
    70 Eq44_up      B          -2.09                       -2.04 
    71 Eq46_down    B           -2.1         -2.15               
    72 Eq46_up      NU         -2.15                       -2.15         < eps
    73 Eq47_down    B           -2.3         -2.35               
    74 Eq47_up      NU         -2.35                       -2.35         < eps
    75 Eq49_down    NL         -2.01         -2.01                       < eps
    76 Eq49_up      B          -2.06                       -2.01 
    77 Eq50_down    B         -2.265         -2.29               
    78 Eq50_up      B         -2.315                       -2.29 
    79 Eq51_down    B          -2.51         -2.56               
    80 Eq51_up      NU         -2.56                       -2.56         < eps
    81 Eq52_down    B          -2.73         -2.78               
    82 Eq52_up      NU         -2.78                       -2.78         < eps
    83 Eq54_down    B          -2.37         -2.42               
    84 Eq54_up      NU         -2.42                       -2.42         < eps
    85 Eq55_down    B          -2.46         -2.51               
    86 Eq55_up      NU         -2.51                       -2.51         < eps
    87 Eq56_down    B          -2.52         -2.57               
    88 Eq56_up      NU         -2.57                       -2.57         < eps
    89 Eq57_down    B          -2.63         -2.68               
    90 Eq57_up      NU         -2.68                       -2.68         < eps
    91 Eq58_down    B          -2.29         -2.34               
    92 Eq58_up      NU         -2.34                       -2.34         < eps
    93 Eq59_down    B          -2.41         -2.46               
    94 Eq59_up      NU         -2.46                       -2.46         < eps
    95 Eq60_down    B          -2.43         -2.48               
    96 Eq60_up      NU         -2.48                       -2.48         < eps
    97 Eq61_down    B          -2.49         -2.54               
    98 Eq61_up      NU         -2.54                       -2.54         < eps
    99 Eq62_down    B          -2.57         -2.62               
   100 Eq62_up      NU         -2.62                       -2.62         < eps
   101 Eq63_down    B          -2.59         -2.64               
   102 Eq63_up      NU         -2.64                       -2.64         < eps
   103 Eq64_down    B          -2.75          -2.8               
   104 Eq64_up      NU          -2.8                        -2.8         < eps
   105 Eq65_down    B          -2.77         -2.82               
   106 Eq65_up      NU         -2.82                       -2.82         < eps
   107 Eq68_down    B          -2.62         -2.67               
   108 Eq68_up      NU         -2.67                       -2.67         < eps
   109 Eq69_down    B          -2.74         -2.79               
   110 Eq69_up      NU         -2.79                       -2.79         < eps
   111 Eq70_down    B          -2.53         -2.58               
   112 Eq70_up      NU         -2.58                       -2.58         < eps
   113 maxOfAllErrors
                    B          0.025                             

   No. Column name  St   Activity     Lower bound   Upper bound    Marginal
------ ------------ -- ------------- ------------- ------------- -------------
     1 a            B       -0.54125                             
     2 b            B       -0.26625                             
     3 c            B       -0.25125                             
     4 d            B       -0.28125                             
     5 e            B       -0.38125                             
     6 f            B       -0.74125                             
     7 g            B       -0.45625                             
     8 h            B       -0.54625                             
     9 i            B       -0.64625                             
    10 j            B       -0.79625                             
    11 k            B       -0.54625                             
    12 l            B       -0.75625                             
    13 m            B      -0.512917                             
    14 n            B      -0.552917                             
    15 o            B       -0.22125                             
    16 p            B       -0.01125                             
    17 q            B       -0.31625                             
    18 r            B       -0.59125                             
    19 s            B       -0.12625                             
    20 t            B       -0.18125                             
    21 u            B       -0.32625                             
    22 w            B       -0.52625                             
    23 x            B       -0.76625                             
    24 y            B       -0.81625                             
    25 z            B       -0.54375                             
    26 aa           B        -1.2575                             
    27 bb           B        -1.2925                             
    28 cc           B       -0.50625                             
    29 ff           B       -0.73125                             
    30 gg           B       -0.62125                             
    31 jj           B       -0.55125                             
    32 kk           B       -0.59625                             
    33 ll           B       -0.62625                             
    34 mm           B       -0.68125                             
    35 nn           B       -0.51125                             
    36 oo           B       -0.57125                             
    37 pp           B       -0.58125                             
    38 qq           B       -0.61125                             
    39 rr           B       -0.65125                             
    40 ss           B       -0.66125                             
    41 tt           B       -0.74125                             
    42 uu           B       -0.75125                             
    43 neu1         B       -0.66125                             
    44 neu2         B       -0.69125                             
    45 neu3         B       -0.63875                             
    46 maxError     B          0.025                             

Karush-Kuhn-Tucker optimality conditions:

KKT.PE: max.abs.err = 1.33e-15 on row 26
        max.rel.err = 2.31e-16 on row 26
        High quality

KKT.PB: max.abs.err = 0.00e+00 on row 0
        max.rel.err = 0.00e+00 on row 0
        High quality

KKT.DE: max.abs.err = 2.78e-15 on column 1
        max.rel.err = 1.11e-15 on column 1
        High quality

KKT.DB: max.abs.err = 3.33e-16 on row 38
        max.rel.err = 3.33e-16 on row 38
        High quality

End of output
